CMD:
./solvers/bin/cadical --plain --no-reduce -t 1600 ./data/cnfs//mentorbm1p07/mentorbm1p07.78.cnf

c --- [ banner ] -------------------------------------------------------------
c 
c CaDiCaL SAT Solver
c Copyright (c) 2016-2024
c A. Biere, M. Fleury, N. Froleyks, K. Fazekas, F. Pollitt, T. Faller
c JKU Linz, University of Freiburg, TU Wien
c 
c Version 2.1.3 5296d3d2a9bf48c154ab2acb5e44625776d821bf
c g++ (Gentoo 12.3.1_p20230526 p2) 12.3.1 20230526 -Wall -Wextra -O3 -DNDEBUG
c Sat Aug 9 07:26:21 PDT 2025 Linux cedar2.int.cedar.computecanada.ca 5.14.0-362.24.2.el9_3.x86_64 x86_64
c 
c --- [ limit ] --------------------------------------------------------------
c 
c setting time limit to 1600 seconds real time (due to '-t 1600')
c 
c --- [ parsing input ] ------------------------------------------------------
c 
c reading DIMACS file from './data/cnfs//mentorbm1p07/mentorbm1p07.78.cnf'
c opening file to read './data/cnfs//mentorbm1p07/mentorbm1p07.78.cnf'
c found 'p cnf 2525346 7513959' header
c parsed 7513959 clauses in 1.23 seconds process time
c 
c --- [ options ] ------------------------------------------------------------
c 
c   --compact=false                (different from default 'true')
c   --decompose=false              (different from default 'true')
c   --deduplicate=false            (different from default 'true')
c   --elim=false                   (different from default 'true')
c   --probe=false                  (different from default 'true')
c   --reduce=false                 (different from default 'true')
c   --subsume=false                (different from default 'true')
c   --ternary=false                (different from default 'true')
c   --transred=false               (different from default 'true')
c   --vivify=false                 (different from default 'true')
c 
c --- [ solving ] ------------------------------------------------------------
c 
c time measured in process time since initialization
c 
c  seconds    reductions  redundant   irredundant
c          MB     restarts       trail         variables
c            level   conflicts       glue            remaining
c 
c *  1.23 1133  0 0   0    0    0  0% 0 7127265 2290351 91%
c {  1.26 1135  0 0   0    0    0  0% 0 7127265 2290351 91%
c i  2.30 1143 2515 0  39  272  260 17% 2 7127265 2290110 91%
c i  2.36 1146 1358 0  52  524  507 15% 2 7127265 2287249 91%
c i  2.64 1149 871 0  60  879  849 15% 2 7127265 2285171 90%
c i  2.64 1149 869 0  61  882  850 15% 2 7127265 2281045 90%
c i  2.64 1149 867 0  61  883  850 15% 2 7127265 2277943 90%
c i  2.66 1149 866 0  61  884  850 15% 2 7127265 2272101 90%
c i  2.70 1149 855 0  61  899  861 15% 2 7127265 2269710 90%
c i  2.70 1149 851 0  61  903  863 15% 2 7127265 2265899 90%
c }  2.99 1153 777 0  78 1000  941 15% 2 7127265 2265897 90%
c [  2.99 1153  0 0  78 1000  941  0% 0 7127265 2265897 90%
c O  3.03 1153 114 0  78 1002  942 12% 0 7127265 2265897 90%
c i  3.03 1153 114 0  78 1002  942 12% 0 7127265 2265893 90%
c i  3.06 1153 166 0  78 1004  943 12% 0 7127265 2265889 90%
c i  3.07 1153 260 0  78 1005  943 12% 0 7127265 2265885 90%
c i  3.08 1153 356 0  78 1006  943 13% 0 7127265 2265883 90%
c i  3.09 1153 455 0  78 1007  943 13% 0 7127265 2265881 90%
c i  3.10 1153 556 0  78 1008  943 14% 0 7127265 2265879 90%
c i  3.10 1153 658 0  78 1009  943 15% 0 7127265 2265877 90%
c 
c  seconds     reductions  redundant   irredundant
c          MB      restarts       trail         variables
c             level   conflicts       glue            remaining
c 
c i  3.11 1153 760 0  78 1010  943 15% 0 7127265 2265875 90%
c i  3.12 1153 863 0  78 1011  943 16% 0 7127265 2265873 90%
c i  3.13 1154 967 0  78 1012  943 16% 0 7127265 2265871 90%
c i  3.14 1154 1071 0  78 1013  943 17% 0 7127265 2265869 90%
c i  3.14 1154 1175 0  78 1014  943 18% 0 7127265 2265867 90%
c i  3.15 1154 1279 0  78 1015  943 18% 0 7127265 2265865 90%
c i  3.16 1154 1383 0  78 1016  943 19% 0 7127265 2265863 90%
c i  3.17 1154 1488 0  78 1017  943 19% 0 7127265 2265861 90%
c i  3.18 1154 1592 0  78 1018  943 20% 0 7127265 2265859 90%
c i  3.19 1154 1697 0  78 1019  943 21% 0 7127265 2265857 90%
c i  3.19 1155 1802 0  78 1020  943 21% 0 7127265 2265855 90%
c i  3.20 1155 1907 0  78 1021  943 22% 0 7127265 2265853 90%
c i  3.21 1155 2012 0  78 1022  943 23% 0 7127265 2265851 90%
c i  3.22 1155 2117 0  78 1023  943 23% 0 7127265 2265849 90%
c i  3.23 1156 2222 0  78 1024  943 24% 0 7127265 2265847 90%
c i  3.24 1156 2327 0  78 1025  943 24% 0 7127265 2265845 90%
c i  3.25 1156 2432 0  78 1026  943 25% 0 7127265 2265843 90%
c i  3.25 1162 2537 0  78 1027  943 26% 0 7127265 2265841 90%
c i  3.26 1164 2642 0  78 1028  943 26% 0 7127265 2265839 90%
c i  3.27 1164 2747 0  78 1029  943 27% 0 7127265 2265837 90%
c 
c  seconds      reductions  redundant   irredundant
c          MB       restarts       trail         variables
c             level    conflicts       glue            remaining
c 
c i  3.28 1164 2853 0  78 1030  943 27% 0 7127265 2265835 90%
c i  3.29 1164 2958 0  78 1031  943 28% 0 7127265 2265833 90%
c i  3.30 1164 3063 0  78 1032  943 29% 0 7127265 2265831 90%
c i  3.30 1164 3168 0  78 1033  943 29% 0 7127265 2265829 90%
... skipped 29 lines ...
c i  3.52 1165 5803 0  78 1058  943 45% 0 7127265 2265779 90%
c i  3.52 1165 5908 0  78 1059  943 46% 0 7127265 2265777 90%
c i  3.53 1165 6014 0  78 1060  943 46% 0 7127265 2265775 90%
c i  3.54 1174 6119 0  78 1061  943 47% 0 7127265 2265773 90%
c i  3.55 1174 6224 0  78 1062  943 47% 0 7127265 2265771 90%
c i  3.56 1174 6330 0  78 1063  943 48% 0 7127265 2265769 90%
c i  3.57 1174 6435 0  78 1064  943 49% 0 7127265 2265767 90%
c i  3.58 1174 6541 0  78 1065  943 49% 0 7127265 2265765 90%
c i  3.59 1174 6646 0  78 1066  943 50% 0 7127265 2265763 90%
c i  3.60 1174 6752 0  78 1067  943 50% 0 7127265 2265761 90%
c i  3.61 1174 6857 0  78 1068  943 51% 0 7127265 2265759 90%
c i  3.62 1174 6963 0  78 1069  943 52% 0 7127265 2265757 90%
c 
c  seconds      reductions  redundant   irredundant
c          MB       restarts       trail         variables
c             level    conflicts       glue            remaining
c 
c ]  5.02 1174 7083 0  79 3004 2663 57% 8 7127265 2265629 90%
c {  5.02 1174 777 0  79 3004 2663 15% 2 7127265 2265629 90%
c F  5.08 1174 776 0  80 3005 2664 15% 2 7127265 2265629 90%
c i  5.09 1174 767 0  83 3018 2675 15% 2 7127265 2265595 90%
c i  5.21 1174 737 0  93 3078 2717 15% 2 7127265 2262529 90%
c i  5.24 1174 713 0  93 3133 2758 15% 2 7127265 2262481 90%
c i  5.25 1174 692 0 102 3172 2789 15% 2 7127265 2262212 90%
c i  5.26 1174 690 0 103 3175 2791 15% 2 7127265 2261890 90%
c i  5.26 1174 688 0 103 3179 2794 15% 2 7127265 2261512 90%
c i  5.26 1174 683 0 103 3187 2800 15% 2 7127265 2261207 90%
c i  5.26 1174 680 0 103 3192 2802 15% 2 7127265 2258505 89%
c i  5.27 1174 677 0 103 3197 2805 15% 2 7127265 2257346 89%
c i  5.29 1174 676 0 103 3198 2805 15% 2 7127265 2207990 87%
c i  5.29 1174 676 0 103 3199 2805 15% 2 7127265 2198778 87%
c i  5.41 1174 624 0 126 3307 2907 15% 2 7127265 2198777 87%
c i  5.91 1174 388 0 305 4824 4272 15% 2 7127265 2198708 87%
c i  6.83 1174 304 0 525 5733 5114 15% 2 7127265 2198670 87%
c i  6.84 1174 302 0 525 5757 5137 15% 2 7127265 2198665 87%
c i  6.88 1175 300 0 525 5803 5178 15% 2 7127265 2196578 87%
c i  6.88 1175 300 0 525 5808 5182 15% 2 7127265 2192597 87%
c 
c  seconds     reductions  redundant   irredundant
c          MB      restarts       trail         variables
c             level   conflicts       glue            remaining
c 
c i  6.90 1175 299 0 525 5832 5202 15% 2 7127265 2190139 87%
c i  6.90 1175 298 0 525 5834 5203 15% 2 7127265 2180469 86%
c i  6.91 1175 297 0 525 5862 5225 15% 2 7127265 2180464 86%
c i  6.91 1175 297 0 525 5863 5225 15% 2 7127265 2180459 86%
c }  6.93 1175 295 0 525 5886 5244 15% 2 7127265 2156110 85%
c 0  6.93 1175 295 0 525 5886 5244 15% 2 7127265 2156110 85%
c 
c --- [ result ] -------------------------------------------------------------
c 
s UNSATISFIABLE
c 
c --- [ run-time profiling ] -------------------------------------------------
c 
c process time taken by individual solving procedures
c (percentage relative to process time for solving)
c 
c         5.70  100.00% search
c         3.65   64.00% unstable
c         2.03   35.60% stable
c         1.23   21.64% parse
c         0.02    0.39% lucky
c         0.00    0.00% simplify
c   =================================
c         5.70   82.20% solve
c 
c last line shows process time for solving
c (percentage relative to total process time)
c 
c --- [ statistics ] ---------------------------------------------------------
c 
c chronological:              3454        58.68 %  of conflicts
c conflicts:                  5886      1032.82    per second
c decisions:                181225     31799.52    per second
c fixed:                    369236        14.62 %  of all variables
c learned:                    5492        93.31 %  per conflict
c learned_lits:              78525       100.00 %  learned literals
c minimized:                     0         0.00 %  learned literals
c shrunken:                   8953        11.40 %  learned literals
c minishrunken:               7844         9.99 %  learned literals
c otfs:                         21         0.36 %  of conflict
c propagations:           66548904        11.68 M  per second
c rephased:                      2      2943.00    interval
c restarts:                    525        11.21    interval
c stabilizing:                   1        34.05 %  of conflicts
c subsumed:                    150         0.00 %  of all clauses
c strengthened:                 21         0.00 %  of all clauses
c 
c seconds are measured in process time for solving
c 
c --- [ resources ] ----------------------------------------------------------
c 
c total process time since initialization:         6.93    seconds
c total real time since initialization:            6.96    seconds
c maximum resident set size of process:         1173.54    MB
c 
c --- [ shutting down ] ------------------------------------------------------
c 
c exit 20
